;test regex /^Loaded options from XML file: '\/.*\/SM_Folder\/([a-zA-Z]{3})\/[a-zA-Z]+_Proof_\1\/processing\/ID2PDF_options.xml$/im
(declare-const X String)
(assert (str.in_re X (re.++ (re.++ (str.to_re "/") (re.++ (str.to_re "") (re.++ (str.to_re "L") (re.++ (str.to_re "o") (re.++ (str.to_re "a") (re.++ (str.to_re "d") (re.++ (str.to_re "e") (re.++ (str.to_re "d") (re.++ (str.to_re " ") (re.++ (str.to_re "o") (re.++ (str.to_re "p") (re.++ (str.to_re "t") (re.++ (str.to_re "i") (re.++ (str.to_re "o") (re.++ (str.to_re "n") (re.++ (str.to_re "s") (re.++ (str.to_re " ") (re.++ (str.to_re "f") (re.++ (str.to_re "r") (re.++ (str.to_re "o") (re.++ (str.to_re "m") (re.++ (str.to_re " ") (re.++ (str.to_re "X") (re.++ (str.to_re "M") (re.++ (str.to_re "L") (re.++ (str.to_re " ") (re.++ (str.to_re "f") (re.++ (str.to_re "i") (re.++ (str.to_re "l") (re.++ (str.to_re "e") (re.++ (str.to_re ":") (re.++ (str.to_re " ") (re.++ (str.to_re "\u{27}") (re.++ (str.to_re "/") (re.++ (re.* (re.diff re.allchar (str.to_re "\n"))) (re.++ (str.to_re "/") (re.++ (str.to_re "S") (re.++ (str.to_re "M") (re.++ (str.to_re "_") (re.++ (str.to_re "F") (re.++ (str.to_re "o") (re.++ (str.to_re "l") (re.++ (str.to_re "d") (re.++ (str.to_re "e") (re.++ (str.to_re "r") (re.++ (str.to_re "/") (re.++ ((_ re.loop 3 3) (re.union (re.range "a" "z") (re.range "A" "Z"))) (re.++ (str.to_re "/") (re.++ (re.+ (re.union (re.range "a" "z") (re.range "A" "Z"))) (re.++ (str.to_re "_") (re.++ (str.to_re "P") (re.++ (str.to_re "r") (re.++ (str.to_re "o") (re.++ (str.to_re "o") (re.++ (str.to_re "f") (re.++ (str.to_re "_") (re.++ (_ re.reference 1) (re.++ (str.to_re "/") (re.++ (str.to_re "p") (re.++ (str.to_re "r") (re.++ (str.to_re "o") (re.++ (str.to_re "c") (re.++ (str.to_re "e") (re.++ (str.to_re "s") (re.++ (str.to_re "s") (re.++ (str.to_re "i") (re.++ (str.to_re "n") (re.++ (str.to_re "g") (re.++ (str.to_re "/") (re.++ (str.to_re "I") (re.++ (str.to_re "D") (re.++ (str.to_re "2") (re.++ (str.to_re "P") (re.++ (str.to_re "D") (re.++ (str.to_re "F") (re.++ (str.to_re "_") (re.++ (str.to_re "o") (re.++ (str.to_re "p") (re.++ (str.to_re "t") (re.++ (str.to_re "i") (re.++ (str.to_re "o") (re.++ (str.to_re "n") (re.++ (str.to_re "s") (re.++ (re.diff re.allchar (str.to_re "\n")) (re.++ (str.to_re "x") (re.++ (str.to_re "m") (str.to_re "l"))))))))))))))))))))))))))))))))))))))))))))))))))))))))))))))))))))))))))))))))))))))) (re.++ (str.to_re "") (re.++ (str.to_re "/") (re.++ (str.to_re "i") (str.to_re "m")))))))
; sanitize danger characters:  < > ' " &
(assert (not (str.in_re X (re.++ re.all (re.union (str.to_re "\u{3c}") (str.to_re "\u{3e}") (str.to_re "\u{27}") (str.to_re "\u{22}") (str.to_re "\u{26}")) re.all))))
(assert (< 9 (str.len X)))
(check-sat)
(get-model)